24° run output:
{
    "Function": "ClusterB300.tsp",
    "Problem dimension": [
        53,
        253,
        120,
        71,
        245,
        180,
        197,
        252,
        250,
        163,
        70,
        43,
        38,
        214,
        208,
        115,
        14,
        51,
        192,
        13,
        20,
        276,
        100,
        267,
        151,
        231,
        116,
        254,
        58,
        172,
        65,
        93,
        169,
        126,
        261,
        179,
        235,
        69,
        198,
        281,
        227,
        46,
        83,
        247,
        220,
        199,
        160,
        289,
        161,
        217,
        177,
        228,
        274,
        249,
        15,
        84,
        99,
        102,
        168,
        158,
        295,
        264,
        87,
        78,
        21,
        124,
        259,
        243,
        6,
        182,
        190,
        210,
        73,
        140,
        251,
        27,
        42,
        114,
        241,
        290,
        178,
        77,
        66,
        181,
        123,
        85,
        239,
        262,
        272,
        79,
        222,
        64,
        50,
        230,
        142,
        167,
        175,
        10,
        82,
        202,
        258,
        194,
        130,
        34,
        219,
        229,
        155,
        97,
        215,
        92,
        75,
        282,
        63,
        105,
        189,
        129,
        132,
        109,
        296,
        292,
        200,
        185,
        32,
        255,
        238,
        143,
        256,
        157,
        111,
        183,
        204,
        275,
        45,
        22,
        90,
        291,
        35,
        156,
        176,
        112,
        119,
        3,
        240,
        278,
        95,
        30,
        74,
        170,
        193,
        131,
        248,
        164,
        184,
        221,
        52,
        141,
        196,
        218,
        121,
        104,
        166,
        25,
        76,
        39,
        203,
        18,
        165,
        98,
        61,
        213,
        12,
        135,
        154,
        187,
        107,
        174,
        122,
        283,
        2,
        57,
        31,
        237,
        139,
        133,
        41,
        211,
        68,
        54,
        271,
        148,
        273,
        191,
        297,
        233,
        4,
        5,
        67,
        280,
        1,
        72,
        128,
        159,
        26,
        81,
        59,
        263,
        286,
        149,
        205,
        195,
        173,
        279,
        40,
        188,
        144,
        80,
        223,
        216,
        96,
        60,
        145,
        44,
        19,
        11,
        285,
        246,
        268,
        134,
        270,
        8,
        186,
        91,
        287,
        150,
        265,
        226,
        242,
        125,
        137,
        127,
        33,
        23,
        298,
        171,
        234,
        16,
        284,
        207,
        277,
        7,
        108,
        244,
        225,
        88,
        24,
        232,
        118,
        152,
        257,
        110,
        86,
        89,
        36,
        9,
        37,
        162,
        201,
        101,
        136,
        0,
        106,
        236,
        288,
        266,
        17,
        28,
        62,
        47,
        117,
        269,
        209,
        103,
        146,
        94,
        293,
        294,
        224,
        48,
        56,
        212,
        113,
        299,
        147,
        138,
        260,
        206,
        29,
        49,
        153,
        55
    ],
    "Global Optimum": 0,
    "Algorithm": "Genetic algorithm",
    "Parameters": {
        "population": 30,
        "offspring": 30,
        "mutation probability": 0.0033333333333333335,
        "crossover probability": 0.9
    },
    "Fitness": 252073,
    "Solution": [
        53,
        253,
        120,
        71,
        245,
        180,
        197,
        252,
        250,
        163,
        70,
        43,
        38,
        214,
        208,
        115,
        14,
        51,
        192,
        13,
        20,
        276,
        100,
        267,
        151,
        231,
        116,
        254,
        58,
        172,
        65,
        93,
        169,
        126,
        261,
        179,
        235,
        69,
        198,
        281,
        227,
        46,
        83,
        247,
        220,
        199,
        160,
        289,
        161,
        217,
        177,
        228,
        274,
        249,
        15,
        84,
        99,
        102,
        168,
        158,
        295,
        264,
        87,
        78,
        21,
        124,
        259,
        243,
        6,
        182,
        190,
        210,
        73,
        140,
        251,
        27,
        42,
        114,
        241,
        290,
        178,
        77,
        66,
        181,
        123,
        85,
        239,
        262,
        272,
        79,
        222,
        64,
        50,
        230,
        142,
        167,
        175,
        10,
        82,
        202,
        258,
        194,
        130,
        34,
        219,
        229,
        155,
        97,
        215,
        92,
        75,
        282,
        63,
        105,
        189,
        129,
        132,
        109,
        296,
        292,
        200,
        185,
        32,
        255,
        238,
        143,
        256,
        157,
        111,
        183,
        204,
        275,
        45,
        22,
        90,
        291,
        35,
        156,
        176,
        112,
        119,
        3,
        240,
        278,
        95,
        30,
        74,
        170,
        193,
        131,
        248,
        164,
        184,
        221,
        52,
        141,
        196,
        218,
        121,
        104,
        166,
        25,
        76,
        39,
        203,
        18,
        165,
        98,
        61,
        213,
        12,
        135,
        154,
        187,
        107,
        174,
        122,
        283,
        2,
        57,
        31,
        237,
        139,
        133,
        41,
        211,
        68,
        54,
        271,
        148,
        273,
        191,
        297,
        233,
        4,
        5,
        67,
        280,
        1,
        72,
        128,
        159,
        26,
        81,
        59,
        263,
        286,
        149,
        205,
        195,
        173,
        279,
        40,
        188,
        144,
        80,
        223,
        216,
        96,
        60,
        145,
        44,
        19,
        11,
        285,
        246,
        268,
        134,
        270,
        8,
        186,
        91,
        287,
        150,
        265,
        226,
        242,
        125,
        137,
        127,
        33,
        23,
        298,
        171,
        234,
        16,
        284,
        207,
        277,
        7,
        108,
        244,
        225,
        88,
        24,
        232,
        118,
        152,
        257,
        110,
        86,
        89,
        36,
        9,
        37,
        162,
        201,
        101,
        136,
        0,
        106,
        236,
        288,
        266,
        17,
        28,
        62,
        47,
        117,
        269,
        209,
        103,
        146,
        94,
        293,
        294,
        224,
        48,
        56,
        212,
        113,
        299,
        147,
        138,
        260,
        206,
        29,
        49,
        153,
        55
    ],
    "Nb of functions evaluations": 400020,
    "Computational time in seconds": 743.5687911510468,
    "Stopping criterion in evaluations": 400000
}